A = 2;
T = 8;
X = 9;
Y = 9;
Z = 2;
building = array2d(YY,XX, [
  0,0,0,0,0,0,0,0,0,
  0,0,0,0,0,0,0,0,0,
  0,0,0,0,0,0,0,0,0,
  0,0,0,0,0,0,0,0,0,
  0,0,0,1,0,0,0,0,0,
  0,0,0,0,0,0,0,0,0,
  0,0,0,0,0,0,0,0,0,
  0,0,0,0,0,0,0,0,0,
  0,0,0,0,0,0,0,0,0,
]);
